(set-option :produce-unsat-assumptions true)
(set-logic ALL)
(declare-const BAV1 Bool)
(declare-const BAV2 Bool)
(declare-const BAV3 Bool)
(declare-const BAV4 Bool)
(declare-const GEN2 Int)
(declare-const GEN1 Int)
(declare-const a1 Bool)
(declare-const a2 Bool)
(declare-const x Int)
(assert (= a1 (= x 5)))
(assert (= a2 (not (= x 5))))
(assert (= BAV1 (= a1 (= x 5))))
(assert (= BAV2 (= x 5)))
(assert (= BAV3 (= a2 (not (= x 5)))))
(assert (= BAV4 (= x 5)))
(check-sat-assuming (a1 a2))
(get-model)
(get-unsat-assumptions)